NAME : senseval3_subTrees1.gtsp.pid14179.gtsp
TYPE : ATSP
DIMENSION : 37
EDGE_WEIGHT_TYPE : EXPLICIT
EDGE_WEIGHT_FORMAT : FULL_MATRIX
EDGE_WEIGHT_SECTION
999999 0 10737418 10737418 10737418 10737418 10737418 10737418 5368728 5368732 5368732 5368730 5368734 5368734 5368731 5368734 5368734 5368734 5368733 5368730 5368732 5368733 5368731 5368731 5368734 5368731 5368731 5368730 5368733 5368733 5368732 5368734 5368732 5368733 5368731 5368729 5368729 
10737418 999999 0 10737418 10737418 10737418 10737418 10737418 5368734 5368734 5368734 5368734 5368730 5368734 5368734 5368734 5368734 5368734 5368733 5368734 5368734 5368734 5368734 5368734 5368734 5368734 5368733 5368734 5368733 5368734 5368734 5368734 5368733 5368733 5368734 5368733 5368733 
10737418 10737418 999999 0 10737418 10737418 10737418 10737418 5368734 5368734 5368734 5368734 5368730 5368734 5368734 5368734 5368734 5368734 5368733 5368734 5368734 5368734 5368734 5368734 5368734 5368734 5368733 5368734 5368733 5368734 5368734 5368734 5368733 5368733 5368734 5368733 5368733 
10737418 10737418 10737418 999999 0 10737418 10737418 10737418 5368727 5368734 5368733 5368728 5368730 5368734 5368730 5368734 5368732 5368734 5368733 5368730 5368726 5368732 5368732 5368731 5368731 5368732 5368732 5368730 5368733 5368732 5368730 5368734 5368731 5368732 5368729 5368729 5368729 
10737418 10737418 10737418 10737418 999999 0 10737418 10737418 5368723 5368730 5368729 5368720 5368729 5368733 5368728 5368732 5368732 5368733 5368734 5368727 5368724 5368727 5368727 5368725 5368731 5368730 5368732 5368732 5368733 5368730 5368733 5368733 5368732 5368731 5368729 5368730 5368730 
10737418 10737418 10737418 10737418 10737418 999999 0 10737418 5368732 5368734 5368733 5368730 5368734 5368734 5368733 5368734 5368734 5368734 5368733 5368731 5368731 5368733 5368733 5368733 5368734 5368733 5368733 5368734 5368732 5368733 5368734 5368734 5368733 5368733 5368733 5368731 5368731 
10737418 10737418 10737418 10737418 10737418 10737418 999999 0 5368718 5368724 5368726 5368721 5368730 5368726 5368719 5368726 5368724 5368730 5368727 5368723 5368717 5368724 5368716 5368717 5368726 5368722 5368710 5368720 5368727 5368724 5368729 5368730 5368728 5368727 5368715 5368715 5368715 
0 10737418 10737418 10737418 10737418 10737418 10737418 999999 5368728 5368734 5368734 5368726 5368734 5368734 5368730 5368734 5368732 5368734 5368733 5368731 5368728 5368732 5368732 5368731 5368732 5368732 5368733 5368734 5368733 5368731 5368734 5368734 5368733 5368733 5368729 5368728 5368728 
5368734 5368732 5368734 5368734 5368734 5368730 5368734 5368724 999999 0 10737418 5368732 5368734 5368734 5368732 5368732 5368732 5368734 5368734 5368732 5368732 5368730 5368727 5368728 5368734 5368732 5368731 5368729 5368732 5368734 5368734 5368734 5368734 5368732 5368730 5368732 5368732 
5368734 5368732 5368734 5368734 5368733 5368729 5368733 5368726 10737418 999999 0 5368729 5368734 5368734 5368733 5368733 5368733 5368734 5368734 5368731 5368731 5368731 5368729 5368728 5368733 5368732 5368731 5368731 5368733 5368734 5368734 5368734 5368733 5368732 5368730 5368732 5368732 
5368728 5368728 5368734 5368734 5368727 5368723 5368732 5368718 0 10737418 999999 5368721 5368734 5368734 5368727 5368731 5368729 5368734 5368734 5368725 5368725 5368729 5368726 5368725 5368731 5368729 5368730 5368728 5368731 5368731 5368734 5368734 5368733 5368730 5368726 5368730 5368730 
5368734 5368734 5368730 5368730 5368730 5368729 5368734 5368730 5368734 5368734 5368734 999999 0 10737418 10737418 10737418 10737418 10737418 10737418 10737418 10737418 10737418 10737418 10737418 10737418 10737418 10737418 10737418 10737418 10737418 10737418 10737418 10737418 10737418 10737418 10737418 5368732 
5368734 5368734 5368734 5368734 5368734 5368733 5368734 5368726 5368734 5368734 5368734 10737418 999999 0 10737418 10737418 10737418 10737418 10737418 10737418 10737418 10737418 10737418 10737418 10737418 10737418 10737418 10737418 10737418 10737418 10737418 10737418 10737418 10737418 10737418 10737418 5368730 
5368730 5368731 5368734 5368734 5368730 5368728 5368733 5368719 5368727 5368732 5368733 10737418 10737418 999999 0 10737418 10737418 10737418 10737418 10737418 10737418 10737418 10737418 10737418 10737418 10737418 10737418 10737418 10737418 10737418 10737418 10737418 10737418 10737418 10737418 10737418 5368727 
5368734 5368734 5368734 5368734 5368734 5368732 5368734 5368726 5368731 5368732 5368733 10737418 10737418 10737418 999999 0 10737418 10737418 10737418 10737418 10737418 10737418 10737418 10737418 10737418 10737418 10737418 10737418 10737418 10737418 10737418 10737418 10737418 10737418 10737418 10737418 5368732 
5368732 5368734 5368734 5368734 5368732 5368732 5368734 5368724 5368729 5368732 5368733 10737418 10737418 10737418 10737418 999999 0 10737418 10737418 10737418 10737418 10737418 10737418 10737418 10737418 10737418 10737418 10737418 10737418 10737418 10737418 10737418 10737418 10737418 10737418 10737418 5368732 
5368734 5368734 5368734 5368734 5368734 5368733 5368734 5368730 5368734 5368734 5368734 10737418 10737418 10737418 10737418 10737418 999999 0 10737418 10737418 10737418 10737418 10737418 10737418 10737418 10737418 10737418 10737418 10737418 10737418 10737418 10737418 10737418 10737418 10737418 10737418 5368732 
5368733 5368733 5368733 5368733 5368733 5368734 5368733 5368727 5368734 5368734 5368734 10737418 10737418 10737418 10737418 10737418 10737418 999999 0 10737418 10737418 10737418 10737418 10737418 10737418 10737418 10737418 10737418 10737418 10737418 10737418 10737418 10737418 10737418 10737418 10737418 5368729 
5368731 5368730 5368734 5368734 5368730 5368727 5368731 5368723 5368725 5368732 5368731 10737418 10737418 10737418 10737418 10737418 10737418 10737418 999999 0 10737418 10737418 10737418 10737418 10737418 10737418 10737418 10737418 10737418 10737418 10737418 10737418 10737418 10737418 10737418 10737418 5368728 
5368728 5368732 5368734 5368734 5368726 5368724 5368731 5368717 5368725 5368732 5368731 10737418 10737418 10737418 10737418 10737418 10737418 10737418 10737418 999999 0 10737418 10737418 10737418 10737418 10737418 10737418 10737418 10737418 10737418 10737418 10737418 10737418 10737418 10737418 10737418 5368728 
5368732 5368733 5368734 5368734 5368732 5368727 5368733 5368724 5368729 5368730 5368731 10737418 10737418 10737418 10737418 10737418 10737418 10737418 10737418 10737418 999999 0 10737418 10737418 10737418 10737418 10737418 10737418 10737418 10737418 10737418 10737418 10737418 10737418 10737418 10737418 5368731 
5368732 5368731 5368734 5368734 5368732 5368727 5368733 5368716 5368726 5368727 5368729 10737418 10737418 10737418 10737418 10737418 10737418 10737418 10737418 10737418 10737418 999999 0 10737418 10737418 10737418 10737418 10737418 10737418 10737418 10737418 10737418 10737418 10737418 10737418 10737418 5368729 
5368731 5368731 5368734 5368734 5368731 5368725 5368733 5368717 5368725 5368728 5368728 10737418 10737418 10737418 10737418 10737418 10737418 10737418 10737418 10737418 10737418 10737418 999999 0 10737418 10737418 10737418 10737418 10737418 10737418 10737418 10737418 10737418 10737418 10737418 10737418 5368728 
5368732 5368734 5368734 5368734 5368731 5368731 5368734 5368726 5368731 5368734 5368733 10737418 10737418 10737418 10737418 10737418 10737418 10737418 10737418 10737418 10737418 10737418 10737418 999999 0 10737418 10737418 10737418 10737418 10737418 10737418 10737418 10737418 10737418 10737418 10737418 5368730 
5368732 5368731 5368734 5368734 5368732 5368730 5368733 5368722 5368729 5368732 5368732 10737418 10737418 10737418 10737418 10737418 10737418 10737418 10737418 10737418 10737418 10737418 10737418 10737418 999999 0 10737418 10737418 10737418 10737418 10737418 10737418 10737418 10737418 10737418 10737418 5368729 
5368733 5368731 5368733 5368733 5368732 5368732 5368733 5368710 5368730 5368731 5368731 10737418 10737418 10737418 10737418 10737418 10737418 10737418 10737418 10737418 10737418 10737418 10737418 10737418 10737418 999999 0 10737418 10737418 10737418 10737418 10737418 10737418 10737418 10737418 10737418 5368724 
5368734 5368730 5368734 5368734 5368730 5368732 5368734 5368720 5368728 5368729 5368731 10737418 10737418 10737418 10737418 10737418 10737418 10737418 10737418 10737418 10737418 10737418 10737418 10737418 10737418 10737418 999999 0 10737418 10737418 10737418 10737418 10737418 10737418 10737418 10737418 5368730 
5368733 5368733 5368733 5368733 5368733 5368733 5368732 5368727 5368731 5368732 5368733 10737418 10737418 10737418 10737418 10737418 10737418 10737418 10737418 10737418 10737418 10737418 10737418 10737418 10737418 10737418 10737418 999999 0 10737418 10737418 10737418 10737418 10737418 10737418 10737418 5368730 
5368731 5368733 5368734 5368734 5368732 5368730 5368733 5368724 5368731 5368734 5368734 10737418 10737418 10737418 10737418 10737418 10737418 10737418 10737418 10737418 10737418 10737418 10737418 10737418 10737418 10737418 10737418 10737418 999999 0 10737418 10737418 10737418 10737418 10737418 10737418 5368728 
5368734 5368732 5368734 5368734 5368730 5368733 5368734 5368729 5368734 5368734 5368734 10737418 10737418 10737418 10737418 10737418 10737418 10737418 10737418 10737418 10737418 10737418 10737418 10737418 10737418 10737418 10737418 10737418 10737418 999999 0 10737418 10737418 10737418 10737418 10737418 5368732 
5368734 5368734 5368734 5368734 5368734 5368733 5368734 5368730 5368734 5368734 5368734 10737418 10737418 10737418 10737418 10737418 10737418 10737418 10737418 10737418 10737418 10737418 10737418 10737418 10737418 10737418 10737418 10737418 10737418 10737418 999999 0 10737418 10737418 10737418 10737418 5368732 
5368733 5368732 5368733 5368733 5368731 5368732 5368733 5368728 5368733 5368734 5368733 10737418 10737418 10737418 10737418 10737418 10737418 10737418 10737418 10737418 10737418 10737418 10737418 10737418 10737418 10737418 10737418 10737418 10737418 10737418 10737418 999999 0 10737418 10737418 10737418 5368730 
5368733 5368733 5368733 5368733 5368732 5368731 5368733 5368727 5368730 5368732 5368732 10737418 10737418 10737418 10737418 10737418 10737418 10737418 10737418 10737418 10737418 10737418 10737418 10737418 10737418 10737418 10737418 10737418 10737418 10737418 10737418 10737418 999999 0 10737418 10737418 5368730 
5368729 5368731 5368734 5368734 5368729 5368729 5368733 5368715 5368726 5368730 5368730 10737418 10737418 10737418 10737418 10737418 10737418 10737418 10737418 10737418 10737418 10737418 10737418 10737418 10737418 10737418 10737418 10737418 10737418 10737418 10737418 10737418 10737418 999999 0 10737418 5368726 
5368728 5368729 5368733 5368733 5368729 5368730 5368731 5368715 5368730 5368732 5368732 10737418 10737418 10737418 10737418 10737418 10737418 10737418 10737418 10737418 10737418 10737418 10737418 10737418 10737418 10737418 10737418 10737418 10737418 10737418 10737418 10737418 10737418 10737418 999999 0 -2142114940 
5368726 5368730 5368734 5368734 5368728 5368720 5368730 5368721 5368721 5368732 5368729 0 10737418 10737418 10737418 10737418 10737418 10737418 10737418 10737418 10737418 10737418 10737418 10737418 10737418 10737418 10737418 10737418 10737418 10737418 10737418 10737418 10737418 10737418 10737418 999999 5368730 
5368728 5368729 5368733 5368733 5368729 5368730 5368731 5368715 5368730 5368732 5368732 5368730 5368732 5368730 5368727 5368732 5368732 5368732 5368729 5368728 5368728 5368731 5368729 5368728 5368730 5368729 5368724 5368730 5368730 5368728 5368732 5368732 5368730 5368730 5368726 -2142114940 999999 
EOF
